colors = 10; % 10 UNSAT, 11 optimal
n = 87;
e = 812;
start = [1,1,1,1,1,1,2,2,2,2,2,2,2,2,2,2,2,2,2,2,2,2,2,2,2,2,2,2,2,2,2,2,2,2,2,2,2,3,3,3,3,3,3,3,4,4,4,4,4,4,4,4,4,4,4,4,4,4,4,4,4,4,4,5,5,5,5,6,6,7,7,7,7,7,7,7,7,8,8,8,9,9,9,9,9,9,10,10,11,11,11,11,11,11,11,12,12,12,12,12,12,12,12,12,12,12,12,13,13,13,13,13,14,14,14,14,14,14,14,14,14,14,14,14,14,14,14,14,14,15,15,15,16,16,16,16,16,16,16,16,16,17,17,17,17,17,17,17,17,17,18,18,18,18,18,19,19,19,19,19,19,19,19,19,19,19,19,19,19,19,19,19,19,19,19,19,19,19,19,19,19,19,19,19,19,19,19,19,19,19,20,20,20,20,20,20,20,20,20,20,20,20,20,20,20,20,21,21,21,21,21,21,21,21,21,21,21,22,22,22,22,22,22,23,23,23,23,23,23,23,23,23,23,23,24,24,24,24,25,26,27,27,27,27,27,28,28,28,28,29,29,29,29,29,29,29,29,30,30,31,31,31,31,31,31,32,32,32,32,32,32,32,32,32,32,32,32,32,32,32,33,33,33,33,33,33,33,33,33,33,34,34,34,34,34,34,34,34,34,34,34,34,34,34,34,34,34,34,34,34,34,35,35,35,35,35,35,35,35,35,35,35,35,35,35,35,35,36,36,36,37,37,37,37,37,37,37,37,37,38,39,39,39,39,40,40,40,40,40,40,41,42,42,42,42,42,42,42,42,42,42,42,42,42,42,43,43,43,43,43,43,43,43,43,43,43,43,43,43,44,44,44,45,45,45,45,45,45,45,45,45,46,46,46,46,46,46,46,46,46,46,46,46,46,46,46,46,47,47,48,49,49,49,49,49,49,49,49,49,49,49,49,49,49,49,49,50,50,50,50,50,50,50,50,50,51,51,51,51,51,51,51,52,52,52,52,52,52,52,53,53,53,53,53,53,53,53,54,54,54,54,54,55,55,55,55,55,55,55,55,55,55,55,56,56,56,57,57,57,58,58,58,58,58,58,58,58,58,58,58,58,58,58,58,58,58,58,59,59,59,59,59,59,60,60,60,60,60,60,61,61,61,62,63,63,63,63,63,64,65,66,66,66,66,66,66,66,66,66,66,66,66,66,66,66,66,66,66,66,66,66,66,66,66,66,66,66,66,67,67,67,67,67,67,67,67,67,67,67,67,67,67,67,67,67,68,68,68,68,68,68,68,68,69,69,69,69,69,69,69,69,69,70,70,70,70,70,70,71,71,71,71,71,71,71,71,71,71,71,72,72,72,72,72,72,72,72,72,72,72,72,73,73,73,73,73,73,73,73,73,74,74,74,74,74,74,74,74,74,74,74,74,74,74,74,75,76,76,76,76,76,76,76,76,76,76,76,76,76,76,77,77,77,77,77,78,78,79,79,79,79,79,79,79,79,79,80,80,80,80,80,80,81,81,81,81,81,81,81,81,82,83,83,83,83,83,83,83,83,83,83,83,83,83,83,83,83,83,83,83,83,83,83,83,83,83,83,83,83,83,83,83,83,83,83,83,83,83,83,83,83,83,83,83,83,83,83,83,83,83,83,83,83,83,83,83,83,83,83,83,83,83,83,83,83,83,83,83,83,83,83,83,83,83,83,83,83,83,83,83,83,83,83,84,84,84,84,84,84,84,84,84,85,85,85,85,85,85,86,86,86,86,87,87,87,87,87,87,87,87,87,87,87,87,87,87,87,87,87,87,87,87,87,87,87,87,87,87,87,87,87,87];
end = [20,14,4,79,66,83,32,55,74,46,7,4,34,72,29,23,43,42,81,53,19,39,86,16,56,87,33,58,76,67,35,54,83,79,11,66,80,22,23,72,58,87,83,33,12,87,19,74,32,55,46,34,2,21,18,59,1,49,14,20,83,79,66,31,34,83,78,47,83,35,2,19,87,33,34,83,58,71,49,83,11,76,14,40,83,57,42,83,9,40,14,67,83,76,2,74,32,46,34,14,21,20,4,68,36,52,83,43,27,85,60,19,12,74,32,46,34,21,49,1,9,40,11,76,4,20,83,79,66,61,49,83,67,77,63,22,42,76,66,2,83,37,84,19,87,58,45,73,50,83,4,71,59,83,49,51,23,72,4,55,7,42,81,53,43,27,85,13,60,2,32,74,35,66,71,46,34,37,84,87,58,17,45,73,50,68,69,52,49,83,12,74,32,46,34,87,59,71,21,49,1,4,14,83,79,66,12,74,32,46,34,14,4,66,83,79,20,3,77,63,16,42,83,43,19,2,35,3,87,29,67,72,83,33,67,66,80,83,83,83,43,85,13,60,19,51,69,68,83,35,2,87,33,72,23,83,67,39,83,5,34,67,44,76,83,12,14,21,20,4,66,87,2,19,70,46,74,55,34,83,7,29,67,58,3,23,72,87,2,83,12,14,21,20,4,87,35,2,71,19,7,58,5,66,70,46,74,32,55,83,31,7,87,58,34,29,23,19,86,66,72,56,76,67,2,54,83,52,12,83,84,19,87,58,17,45,73,50,83,83,30,66,2,83,11,76,14,83,9,57,83,10,43,19,66,87,2,81,53,77,63,16,22,67,83,23,72,81,53,66,2,42,87,83,27,85,13,60,19,31,76,83,37,84,19,87,58,17,73,50,83,12,14,21,20,4,66,87,2,71,19,70,74,32,55,34,83,6,83,83,61,15,8,14,20,66,71,59,18,79,4,68,69,52,19,83,37,84,19,87,58,17,45,73,83,85,60,19,28,69,68,83,68,69,19,49,36,12,83,43,66,87,2,19,83,81,42,76,67,35,2,83,4,66,87,19,2,70,46,74,32,34,83,83,35,2,40,83,9,71,69,35,72,37,84,19,17,45,73,50,34,7,87,33,3,2,83,20,4,71,83,49,18,51,43,27,85,13,19,15,49,83,83,77,16,22,42,83,83,83,74,32,55,46,43,81,53,42,87,86,35,19,39,16,21,49,34,67,24,4,14,20,1,76,83,80,79,2,16,42,87,33,29,72,23,35,54,2,31,66,11,24,76,80,83,19,49,52,28,51,69,83,12,71,58,19,49,52,28,51,68,83,46,74,32,55,34,83,8,58,69,20,46,34,19,59,49,18,83,43,19,2,58,3,35,87,29,67,23,83,33,37,84,19,58,17,45,50,87,83,12,14,21,20,4,66,87,2,19,70,46,32,55,34,83,83,16,35,54,2,9,40,14,11,67,80,44,31,66,83,63,16,22,42,83,83,5,21,1,49,4,14,20,83,2,66,24,67,76,66,83,2,43,66,87,2,19,83,53,42,83,56,10,43,81,53,30,77,63,22,42,37,84,17,45,50,73,61,15,39,86,16,21,8,71,59,18,62,38,26,65,64,7,29,3,82,23,72,87,33,58,35,2,54,75,41,5,78,70,46,74,32,55,34,47,6,11,40,9,57,25,24,49,19,28,51,69,68,36,52,12,48,67,4,14,20,79,1,44,31,76,66,80,37,19,87,58,17,45,73,50,83,51,43,27,13,60,19,35,66,2,83,20,4,74,32,55,46,34,35,43,66,42,81,53,7,37,84,19,17,45,50,73,29,72,23,67,58,3,33,2,83];